
===== New CPLEX run =====
Instance: /home/yorig/tuner/mpils-tests/instances/miplib/easy/lotsize.mps
Config: /scratch/yorig/mpils-results-grid-ticks-10000/easy/16proc/seed-9/4_lotsize_seed-9_20260425_202405/expansion/config_param_CPXPARAM_MIP_Strategy_BBInterval_4_iter_1.prm
========================

Selected objective sense:  MINIMIZE
Selected objective  name:  R1921
Selected RHS        name:  B
Selected bound      name:  BOUND
Version identifier: 22.1.2.0 | 2024-11-26 | 0edbb82fd
CPXPARAM_Threads                                 8
CPXPARAM_Parallel                                1
CPXPARAM_MIP_Cuts_Cliques                        -1
CPXPARAM_MIP_Cuts_FlowCovers                     2
CPXPARAM_MIP_Cuts_Implied                        2
CPXPARAM_MIP_Cuts_GUBCovers                      -1
CPXPARAM_MIP_Limits_GomoryCand                   50
CPXPARAM_MIP_Cuts_Gomory                         1
CPXPARAM_MIP_Cuts_PathCut                        -1
CPXPARAM_MIP_Cuts_MIRCut                         2
CPXPARAM_MIP_Cuts_Disjunctive                    -1
CPXPARAM_Emphasis_MIP                            1
CPXPARAM_MIP_Strategy_BBInterval                 4
CPXPARAM_DetTimeLimit                            10000
Tried aggregator 1 time.
MIP Presolve eliminated 595 rows and 0 columns.
MIP Presolve added 1190 rows and 0 columns.
MIP Presolve modified 10 coefficients.
Reduced MIP has 2515 rows, 2985 columns, and 7755 nonzeros.
Reduced MIP has 1195 binaries, 0 generals, 0 SOSs, and 0 indicators.
Presolve time = 0.00 sec. (4.53 ticks)
Probing fixed 0 vars, tightened 5487 bounds.
Probing time = 0.01 sec. (18.38 ticks)
Tried aggregator 2 times.
Detecting symmetries...
MIP Presolve modified 1206 coefficients.
Aggregator did 10 substitutions.
Reduced MIP has 2505 rows, 2975 columns, and 7735 nonzeros.
Reduced MIP has 1195 binaries, 0 generals, 0 SOSs, and 0 indicators.
Presolve time = 0.00 sec. (6.66 ticks)
Probing fixed 0 vars, tightened 2401 bounds.
Probing time = 0.00 sec. (6.41 ticks)
Clique table members: 190.
MIP emphasis: integer feasibility.
MIP search method: dynamic search.
Parallel mode: deterministic, using up to 8 threads.
Root relaxation solution time = 0.01 sec. (9.71 ticks)

        Nodes                                         Cuts/
   Node  Left     Objective  IInf  Best Integer    Best Bound    ItCnt     Gap

      0     0   348385.3466   472                 348385.3466      882         
      0     0   572313.5958   462                   Cuts: 726     1889         
      0     0   831822.5913   565                   Cuts: 726     2717         
      0     0   945966.5491   640                   Cuts: 726     3332         
*     0+    0                       1.01740e+07   945966.5491            90.70%
*     0+    0                      7973370.0000   945966.5491            88.14%
Detecting symmetries...
      0     2   945966.5491   640  7973370.0000   945966.5491     3332   88.14%
Elapsed time = 0.33 sec. (495.68 ticks, tree = 0.02 MB, solutions = 2)
    100    70  1063812.9905   674  7973370.0000   946292.4723    11501   88.13%
    517   400  1099645.0451   514  7973370.0000   946292.4723    18492   88.13%
    847   737  1196861.5457   533  7973370.0000   946292.4723    24256   88.13%
   1429  1203  1524718.7381   280  7973370.0000   946292.4723    33245   88.13%

Performing restart 1

Repeating presolve.
Tried aggregator 1 time.
MIP Presolve modified 1211 coefficients.
Reduced MIP has 2505 rows, 2975 columns, and 7735 nonzeros.
Reduced MIP has 1195 binaries, 0 generals, 0 SOSs, and 0 indicators.
Presolve time = 0.00 sec. (3.84 ticks)
Tried aggregator 1 time.
MIP Presolve modified 1032 coefficients.
Reduced MIP has 2505 rows, 2975 columns, and 7735 nonzeros.
Reduced MIP has 1195 binaries, 0 generals, 0 SOSs, and 0 indicators.
Presolve time = 0.00 sec. (5.12 ticks)
Represolve time = 0.02 sec. (18.63 ticks)
*  1743+    0                      6644005.0000  1005488.4859            84.87%
   1743     0  1136884.5664   706  6644005.0000     Cuts: 726    45172   82.89%
   1743     0  1223882.5157   689  6644005.0000     Cuts: 726    45957   81.58%
   1743     0  1272111.1929   698  6644005.0000     Cuts: 726    46695   80.85%
   1743     2  1272111.1929   698  6644005.0000  1272111.1929    46695   80.85%
   1753    12  1312972.0693   633  6644005.0000  1272182.2601    47211   80.85%
   1783    42  1330315.6001   565  6644005.0000  1272182.2601    47966   80.85%
   1815     5  1306164.3867   673  6644005.0000  1272182.2601    46863   80.85%
   1822    75  1370264.3809   744  6644005.0000  1272331.7537    49981   80.85%
   1939   138  1390861.2709   753  6644005.0000  1309631.0375    75360   80.29%
Elapsed time = 3.95 sec. (5570.77 ticks, tree = 0.11 MB, solutions = 3)
*  2031+  176                      1872242.0000  1309879.9988            30.04%
   2493   483  1406262.9728   532  1872242.0000  1309879.9988   103336   30.04%
*  2825+  932                      1802516.0000  1309879.9988            27.33%
   3468  1146  1671747.5304   204  1802516.0000  1309879.9988   133431   27.33%
*  4197  2009      integral     0  1791212.0000  1309879.9988   160942   26.87%
*  4274  2172      integral     0  1683368.0000  1309879.9988   165537   22.19%
*  4283  1955      integral     0  1669356.0000  1309879.9988   168715   21.53%
*  4518+ 1821                      1591649.0000  1309879.9988            17.70%
*  4537+ 1821                      1570845.0000  1309879.9988            16.61%
   4732  1506  1416724.7168   738  1570845.0000  1309879.9988   189232   16.61%
   5597  2268  1509510.7607   459  1570845.0000  1309879.9988   231259   16.61%
*  5843+ 2285                      1523462.0000  1309879.9988            14.02%
*  5861+ 2284                      1521136.0000  1309879.9988            13.89%
*  5876+ 2284                      1518099.0000  1309879.9988            13.72%
*  5888+ 2284                      1513161.0000  1309879.9988            13.43%
*  5903+ 2283                      1510595.0000  1309879.9988            13.29%
*  5912+ 2283                      1509965.0000  1309879.9988            13.25%
*  5919+ 2283                      1508701.0000  1309879.9988            13.18%
*  5949+ 2125                      1508701.0000  1309879.9988            13.18%

Cover cuts applied:  26
Implied bound cuts applied:  10
Flow cuts applied:  816
Mixed integer rounding cuts applied:  1086
Multi commodity flow cuts applied:  19
Lift and project cuts applied:  6
Gomory fractional cuts applied:  2

Root node processing (before b&c):
  Real time             =    0.33 sec. (493.66 ticks)
Parallel b&c, 8 threads:
  Real time             =    6.76 sec. (9510.07 ticks)
  Sync time (average)   =    0.54 sec.
  Wait time (average)   =    0.00 sec.
                          ------------
Total (root+branch&cut) =    7.09 sec. (10003.73 ticks)
Gap: 13.18%
Upper bound: 1.5087e+06
Lower bound: 1.30988e+06
End of CPLEX run. Time: 7.08662 seconds

===== New CPLEX run =====
Instance: /home/yorig/tuner/mpils-tests/instances/miplib/easy/lotsize.mps
Config: /scratch/yorig/mpils-results-grid-ticks-10000/easy/16proc/seed-9/4_lotsize_seed-9_20260425_202405/expansion/config_param_CPXPARAM_MIP_Strategy_BBInterval_5_iter_1.prm
========================

Selected objective sense:  MINIMIZE
Selected objective  name:  R1921
Selected RHS        name:  B
Selected bound      name:  BOUND
Version identifier: 22.1.2.0 | 2024-11-26 | 0edbb82fd
CPXPARAM_Threads                                 8
CPXPARAM_Parallel                                1
CPXPARAM_MIP_Cuts_Cliques                        -1
CPXPARAM_MIP_Cuts_FlowCovers                     2
CPXPARAM_MIP_Cuts_Implied                        2
CPXPARAM_MIP_Cuts_GUBCovers                      -1
CPXPARAM_MIP_Limits_GomoryCand                   50
CPXPARAM_MIP_Cuts_Gomory                         1
CPXPARAM_MIP_Cuts_PathCut                        -1
CPXPARAM_MIP_Cuts_MIRCut                         2
CPXPARAM_MIP_Cuts_Disjunctive                    -1
CPXPARAM_Emphasis_MIP                            1
CPXPARAM_MIP_Strategy_BBInterval                 5
CPXPARAM_DetTimeLimit                            10000
Tried aggregator 1 time.
MIP Presolve eliminated 595 rows and 0 columns.
MIP Presolve added 1190 rows and 0 columns.
MIP Presolve modified 10 coefficients.
Reduced MIP has 2515 rows, 2985 columns, and 7755 nonzeros.
Reduced MIP has 1195 binaries, 0 generals, 0 SOSs, and 0 indicators.
Presolve time = 0.00 sec. (4.53 ticks)
Probing fixed 0 vars, tightened 5487 bounds.
Probing time = 0.01 sec. (18.38 ticks)
Tried aggregator 2 times.
Detecting symmetries...
MIP Presolve modified 1206 coefficients.
Aggregator did 10 substitutions.
Reduced MIP has 2505 rows, 2975 columns, and 7735 nonzeros.
Reduced MIP has 1195 binaries, 0 generals, 0 SOSs, and 0 indicators.
Presolve time = 0.00 sec. (6.66 ticks)
Probing fixed 0 vars, tightened 2401 bounds.
Probing time = 0.00 sec. (6.41 ticks)
Clique table members: 190.
MIP emphasis: integer feasibility.
MIP search method: dynamic search.
Parallel mode: deterministic, using up to 8 threads.
Root relaxation solution time = 0.01 sec. (9.71 ticks)

        Nodes                                         Cuts/
   Node  Left     Objective  IInf  Best Integer    Best Bound    ItCnt     Gap

      0     0   348385.3466   472                 348385.3466      882         
      0     0   572313.5958   462                   Cuts: 726     1889         
      0     0   831822.5913   565                   Cuts: 726     2717         
      0     0   945966.5491   640                   Cuts: 726     3332         
*     0+    0                       1.01740e+07   945966.5491            90.70%
*     0+    0                      7973370.0000   945966.5491            88.14%
Detecting symmetries...
      0     2   945966.5491   640  7973370.0000   945966.5491     3332   88.14%
Elapsed time = 0.33 sec. (495.68 ticks, tree = 0.02 MB, solutions = 2)
    100    70  1063812.9905   674  7973370.0000   946292.4723    11501   88.13%
    517   400  1099645.0451   514  7973370.0000   946292.4723    18492   88.13%
    847   737  1196861.5457   533  7973370.0000   946292.4723    24256   88.13%
   1429  1203  1524718.7381   280  7973370.0000   946292.4723    33245   88.13%

Performing restart 1

Repeating presolve.
Tried aggregator 1 time.
MIP Presolve modified 1211 coefficients.
Reduced MIP has 2505 rows, 2975 columns, and 7735 nonzeros.
Reduced MIP has 1195 binaries, 0 generals, 0 SOSs, and 0 indicators.
Presolve time = 0.00 sec. (3.84 ticks)
Tried aggregator 1 time.
MIP Presolve modified 1032 coefficients.
Reduced MIP has 2505 rows, 2975 columns, and 7735 nonzeros.
Reduced MIP has 1195 binaries, 0 generals, 0 SOSs, and 0 indicators.
Presolve time = 0.00 sec. (5.12 ticks)
Represolve time = 0.02 sec. (18.63 ticks)
*  1734+    0                      6644005.0000  1005488.4859            84.87%
   1734     0  1136884.5664   706  6644005.0000     Cuts: 726    45007   82.89%
   1734     0  1223882.5157   689  6644005.0000     Cuts: 726    45792   81.58%
   1734     0  1272111.1929   698  6644005.0000     Cuts: 726    46530   80.85%
   1734     2  1272111.1929   698  6644005.0000  1272111.1929    46530   80.85%
   1744    12  1312972.0693   633  6644005.0000  1272182.2601    47046   80.85%
   1774    42  1330315.6001   565  6644005.0000  1272182.2601    47801   80.85%
   1806     5  1306164.3867   673  6644005.0000  1272182.2601    46698   80.85%
   1813    75  1370264.3809   744  6644005.0000  1272331.7537    49816   80.85%
   1930   138  1390861.2709   753  6644005.0000  1309631.0375    75195   80.29%
Elapsed time = 3.96 sec. (5570.77 ticks, tree = 0.11 MB, solutions = 3)
*  2022+  176                      1872242.0000  1309879.9988            30.04%
   2484   483  1406262.9728   532  1872242.0000  1309879.9988   103171   30.04%
*  2816+  932                      1802516.0000  1309879.9988            27.33%
   3459  1146  1671747.5304   204  1802516.0000  1309879.9988   133266   27.33%
*  4188  2009      integral     0  1791212.0000  1309879.9988   160777   26.87%
*  4265  2172      integral     0  1683368.0000  1309879.9988   165372   22.19%
*  4274  1958      integral     0  1669356.0000  1309879.9988   168550   21.53%
*  4509+ 1821                      1591649.0000  1309879.9988            17.70%
*  4528+ 1821                      1570845.0000  1309879.9988            16.61%
   4717  1508  1400720.7364   729  1570845.0000  1309879.9988   190513   16.61%
   5515  2120  1561625.5837   293  1570845.0000  1309879.9988   224984   16.61%
*  5910+ 2457                      1525618.0000  1309879.9988            14.14%
*  5919+ 2457                      1514069.0000  1309879.9988            13.49%
*  5927+ 2457                      1511503.0000  1309879.9988            13.34%
*  5935+ 2457                      1508701.0000  1309879.9988            13.18%

Cover cuts applied:  26
Implied bound cuts applied:  10
Flow cuts applied:  816
Mixed integer rounding cuts applied:  1086
Multi commodity flow cuts applied:  19
Lift and project cuts applied:  6
Gomory fractional cuts applied:  2

Root node processing (before b&c):
  Real time             =    0.33 sec. (493.58 ticks)
Parallel b&c, 8 threads:
  Real time             =    7.28 sec. (9516.60 ticks)
  Sync time (average)   =    0.99 sec.
  Wait time (average)   =    0.00 sec.
                          ------------
Total (root+branch&cut) =    7.61 sec. (10010.18 ticks)
Gap: 13.18%
Upper bound: 1.5087e+06
Lower bound: 1.30988e+06
End of CPLEX run. Time: 7.60762 seconds

===== New CPLEX run =====
Instance: /home/yorig/tuner/mpils-tests/instances/miplib/easy/lotsize.mps
Config: /scratch/yorig/mpils-results-grid-ticks-10000/easy/16proc/seed-9/4_lotsize_seed-9_20260425_202405/expansion/config_param_CPXPARAM_MIP_Strategy_BBInterval_10_iter_1.prm
========================

Selected objective sense:  MINIMIZE
Selected objective  name:  R1921
Selected RHS        name:  B
Selected bound      name:  BOUND
Version identifier: 22.1.2.0 | 2024-11-26 | 0edbb82fd
CPXPARAM_Threads                                 8
CPXPARAM_Parallel                                1
CPXPARAM_MIP_Cuts_Cliques                        -1
CPXPARAM_MIP_Cuts_FlowCovers                     2
CPXPARAM_MIP_Cuts_Implied                        2
CPXPARAM_MIP_Cuts_GUBCovers                      -1
CPXPARAM_MIP_Limits_GomoryCand                   50
CPXPARAM_MIP_Cuts_Gomory                         1
CPXPARAM_MIP_Cuts_PathCut                        -1
CPXPARAM_MIP_Cuts_MIRCut                         2
CPXPARAM_MIP_Cuts_Disjunctive                    -1
CPXPARAM_Emphasis_MIP                            1
CPXPARAM_MIP_Strategy_BBInterval                 10
CPXPARAM_DetTimeLimit                            10000
Tried aggregator 1 time.
MIP Presolve eliminated 595 rows and 0 columns.
MIP Presolve added 1190 rows and 0 columns.
MIP Presolve modified 10 coefficients.
Reduced MIP has 2515 rows, 2985 columns, and 7755 nonzeros.
Reduced MIP has 1195 binaries, 0 generals, 0 SOSs, and 0 indicators.
Presolve time = 0.00 sec. (4.53 ticks)
Probing fixed 0 vars, tightened 5487 bounds.
Probing time = 0.01 sec. (18.38 ticks)
Tried aggregator 2 times.
Detecting symmetries...
MIP Presolve modified 1206 coefficients.
Aggregator did 10 substitutions.
Reduced MIP has 2505 rows, 2975 columns, and 7735 nonzeros.
Reduced MIP has 1195 binaries, 0 generals, 0 SOSs, and 0 indicators.
Presolve time = 0.00 sec. (6.66 ticks)
Probing fixed 0 vars, tightened 2401 bounds.
Probing time = 0.00 sec. (6.41 ticks)
Clique table members: 190.
MIP emphasis: integer feasibility.
MIP search method: dynamic search.
Parallel mode: deterministic, using up to 8 threads.
Root relaxation solution time = 0.01 sec. (9.71 ticks)

        Nodes                                         Cuts/
   Node  Left     Objective  IInf  Best Integer    Best Bound    ItCnt     Gap

      0     0   348385.3466   472                 348385.3466      882         
      0     0   572313.5958   462                   Cuts: 726     1889         
      0     0   831822.5913   565                   Cuts: 726     2717         
      0     0   945966.5491   640                   Cuts: 726     3332         
*     0+    0                       1.01740e+07   945966.5491            90.70%
*     0+    0                      7973370.0000   945966.5491            88.14%
Detecting symmetries...
      0     2   945966.5491   640  7973370.0000   945966.5491     3332   88.14%
Elapsed time = 0.33 sec. (495.68 ticks, tree = 0.02 MB, solutions = 2)
    100    70  1063812.9905   674  7973370.0000   946292.4723    11501   88.13%
    517   400  1099645.0451   514  7973370.0000   946292.4723    18492   88.13%
    847   737  1196861.5457   533  7973370.0000   946292.4723    24256   88.13%
   1429  1203  1524718.7381   280  7973370.0000   946292.4723    33245   88.13%

Performing restart 1

Repeating presolve.
Tried aggregator 1 time.
MIP Presolve modified 1211 coefficients.
Reduced MIP has 2505 rows, 2975 columns, and 7735 nonzeros.
Reduced MIP has 1195 binaries, 0 generals, 0 SOSs, and 0 indicators.
Presolve time = 0.00 sec. (3.84 ticks)
Tried aggregator 1 time.
MIP Presolve modified 1032 coefficients.
Reduced MIP has 2505 rows, 2975 columns, and 7735 nonzeros.
Reduced MIP has 1195 binaries, 0 generals, 0 SOSs, and 0 indicators.
Presolve time = 0.00 sec. (5.12 ticks)
Represolve time = 0.02 sec. (18.63 ticks)
*  1734+    0                      6644005.0000  1005488.4859            84.87%
   1734     0  1136884.5664   706  6644005.0000     Cuts: 726    45007   82.89%
   1734     0  1223882.5157   689  6644005.0000     Cuts: 726    45792   81.58%
   1734     0  1272111.1929   698  6644005.0000     Cuts: 726    46530   80.85%
   1734     2  1272111.1929   698  6644005.0000  1272111.1929    46530   80.85%
   1744    12  1312972.0693   633  6644005.0000  1272182.2601    47046   80.85%
   1774    42  1330315.6001   565  6644005.0000  1272182.2601    47801   80.85%
   1806     5  1306164.3867   673  6644005.0000  1272182.2601    46698   80.85%
   1813    75  1370264.3809   744  6644005.0000  1272331.7537    49816   80.85%
   1930   138  1390861.2709   753  6644005.0000  1309631.0375    75195   80.29%
Elapsed time = 3.96 sec. (5570.77 ticks, tree = 0.11 MB, solutions = 3)
*  2022+  176                      1872242.0000  1309879.9988            30.04%
   2484   483  1406262.9728   532  1872242.0000  1309879.9988   103171   30.04%
*  2816+  932                      1802516.0000  1309879.9988            27.33%
   3459  1146  1671747.5304   204  1802516.0000  1309879.9988   133266   27.33%
*  4188  2009      integral     0  1791212.0000  1309879.9988   160777   26.87%
*  4265  2172      integral     0  1683368.0000  1309879.9988   165372   22.19%
*  4274  1956      integral     0  1669356.0000  1309879.9988   168550   21.53%
*  4509+ 1821                      1591649.0000  1309879.9988            17.70%
*  4528+ 1821                      1570845.0000  1309879.9988            16.61%
   4720  1543  1399930.9722   717  1570845.0000  1309879.9988   193124   16.61%
   5533  2142  1423689.1561   689  1570845.0000  1309879.9988   227317   16.61%
*  5628+ 2155                      1550530.0000  1309879.9988            15.52%
*  5649+ 2155                      1520634.0000  1309879.9988            13.86%
*  5655+ 2153                      1515373.0000  1309879.9988            13.56%
*  5661+ 2153                      1513161.0000  1309879.9988            13.43%
*  5667+ 2153                      1512531.0000  1309879.9988            13.40%
*  5672+ 2153                      1508701.0000  1309879.9988            13.18%
*  5816+ 2122                      1508701.0000  1309879.9988            13.18%

Cover cuts applied:  26
Implied bound cuts applied:  10
Flow cuts applied:  816
Mixed integer rounding cuts applied:  1086
Multi commodity flow cuts applied:  19
Lift and project cuts applied:  6
Gomory fractional cuts applied:  2

Root node processing (before b&c):
  Real time             =    0.33 sec. (493.68 ticks)
Parallel b&c, 8 threads:
  Real time             =    7.32 sec. (9509.97 ticks)
  Sync time (average)   =    1.03 sec.
  Wait time (average)   =    0.00 sec.
                          ------------
Total (root+branch&cut) =    7.65 sec. (10003.65 ticks)
Gap: 13.18%
Upper bound: 1.5087e+06
Lower bound: 1.30988e+06
End of CPLEX run. Time: 7.6563 seconds
